# 46923
param n := 25;
param s := 1;
set E :=  (0,7) (0,8) (0,11) (1,7) (1,14) (2,13) (2,21) (3,6) (3,23) (4,10) (5,8) (5,13) (6,13) (6,14) (6,23) (7,8) (7,15) (8,20) (8,21) (9,16) (9,24) (10,19) (11,12) (11,22) (13,16) (13,24) (15,17) (15,24) (16,19) (16,20) (16,22) (17,18) (17,24);
